Instance: E101-10c.dat
Class:  1
  100 --- number of customers (no depot)
   10 --- number of vehicles
  100 --- number of items
Capacity - height - width of vehicles
   200     40     20
Node - x - y - demand
    0    40.0    50.0     0.0
    1    45.0    68.0    10.0
    2    45.0    70.0    30.0
    3    42.0    66.0    10.0
    4    42.0    68.0    10.0
    5    42.0    65.0    10.0
    6    40.0    69.0    20.0
    7    40.0    66.0    20.0
    8    38.0    68.0    20.0
    9    38.0    70.0    10.0
   10    35.0    66.0    10.0
   11    35.0    69.0    10.0
   12    25.0    85.0    20.0
   13    22.0    75.0    30.0
   14    22.0    85.0    10.0
   15    20.0    80.0    40.0
   16    20.0    85.0    40.0
   17    18.0    75.0    20.0
   18    15.0    75.0    20.0
   19    15.0    80.0    10.0
   20    30.0    50.0    10.0
   21    30.0    52.0    20.0
   22    28.0    52.0    20.0
   23    28.0    55.0    10.0
   24    25.0    50.0    10.0
   25    25.0    52.0    40.0
   26    25.0    55.0    10.0
   27    23.0    52.0    10.0
   28    23.0    55.0    20.0
   29    20.0    50.0    10.0
   30    20.0    55.0    10.0
   31    10.0    35.0    20.0
   32    10.0    40.0    30.0
   33     8.0    40.0    40.0
   34     8.0    45.0    20.0
   35     5.0    35.0    10.0
   36     5.0    45.0    10.0
   37     2.0    40.0    20.0
   38     0.0    40.0    30.0
   39     0.0    45.0    20.0
   40    35.0    30.0    10.0
   41    35.0    32.0    10.0
   42    33.0    32.0    20.0
   43    33.0    35.0    10.0
   44    32.0    30.0    10.0
   45    30.0    30.0    10.0
   46    30.0    32.0    30.0
   47    30.0    35.0    10.0
   48    28.0    30.0    10.0
   49    28.0    35.0    10.0
   50    26.0    32.0    10.0
   51    25.0    30.0    10.0
   52    25.0    35.0    10.0
   53    44.0     5.0    20.0
   54    42.0    10.0    40.0
   55    42.0    15.0    10.0
   56    40.0     5.0    30.0
   57    40.0    15.0    40.0
   58    38.0     5.0    30.0
   59    38.0    15.0    10.0
   60    35.0     5.0    20.0
   61    50.0    30.0    10.0
   62    50.0    35.0    20.0
   63    50.0    40.0    50.0
   64    48.0    30.0    10.0
   65    48.0    40.0    10.0
   66    47.0    35.0    10.0
   67    47.0    40.0    10.0
   68    45.0    30.0    10.0
   69    45.0    35.0    10.0
   70    95.0    30.0    30.0
   71    95.0    35.0    20.0
   72    53.0    30.0    10.0
   73    92.0    30.0    10.0
   74    53.0    35.0    50.0
   75    45.0    65.0    20.0
   76    90.0    35.0    10.0
   77    88.0    30.0    10.0
   78    88.0    35.0    20.0
   79    87.0    30.0    10.0
   80    85.0    25.0    10.0
   81    85.0    35.0    30.0
   82    75.0    55.0    20.0
   83    72.0    55.0    10.0
   84    70.0    58.0    20.0
   85    68.0    60.0    30.0
   86    66.0    55.0    10.0
   87    65.0    55.0    20.0
   88    65.0    60.0    30.0
   89    63.0    58.0    10.0
   90    60.0    55.0    10.0
   91    60.0    60.0    10.0
   92    67.0    85.0    20.0
   93    65.0    85.0    40.0
   94    65.0    82.0    10.0
   95    62.0    80.0    30.0
   96    60.0    80.0    10.0
   97    60.0    85.0    30.0
   98    58.0    75.0    20.0
   99    55.0    80.0    10.0
  100    55.0    85.0    20.0
Node - number of items - h - w for each item
    0   0
    1   1    1    1
    2   1    1    1
    3   1    1    1
    4   1    1    1
    5   1    1    1
    6   1    1    1
    7   1    1    1
    8   1    1    1
    9   1    1    1
   10   1    1    1
   11   1    1    1
   12   1    1    1
   13   1    1    1
   14   1    1    1
   15   1    1    1
   16   1    1    1
   17   1    1    1
   18   1    1    1
   19   1    1    1
   20   1    1    1
   21   1    1    1
   22   1    1    1
   23   1    1    1
   24   1    1    1
   25   1    1    1
   26   1    1    1
   27   1    1    1
   28   1    1    1
   29   1    1    1
   30   1    1    1
   31   1    1    1
   32   1    1    1
   33   1    1    1
   34   1    1    1
   35   1    1    1
   36   1    1    1
   37   1    1    1
   38   1    1    1
   39   1    1    1
   40   1    1    1
   41   1    1    1
   42   1    1    1
   43   1    1    1
   44   1    1    1
   45   1    1    1
   46   1    1    1
   47   1    1    1
   48   1    1    1
   49   1    1    1
   50   1    1    1
   51   1    1    1
   52   1    1    1
   53   1    1    1
   54   1    1    1
   55   1    1    1
   56   1    1    1
   57   1    1    1
   58   1    1    1
   59   1    1    1
   60   1    1    1
   61   1    1    1
   62   1    1    1
   63   1    1    1
   64   1    1    1
   65   1    1    1
   66   1    1    1
   67   1    1    1
   68   1    1    1
   69   1    1    1
   70   1    1    1
   71   1    1    1
   72   1    1    1
   73   1    1    1
   74   1    1    1
   75   1    1    1
   76   1    1    1
   77   1    1    1
   78   1    1    1
   79   1    1    1
   80   1    1    1
   81   1    1    1
   82   1    1    1
   83   1    1    1
   84   1    1    1
   85   1    1    1
   86   1    1    1
   87   1    1    1
   88   1    1    1
   89   1    1    1
   90   1    1    1
   91   1    1    1
   92   1    1    1
   93   1    1    1
   94   1    1    1
   95   1    1    1
   96   1    1    1
   97   1    1    1
   98   1    1    1
   99   1    1    1
  100   1    1    1
